mixintcount/benchmarks/random_v2l/3_3_89.smt2
(set-logic QF_LIA)
(set-info :ran/ran2.smt2)
(set-info :smt-lib-version 2.0)
(declare-fun x1 () Int)
(declare-fun x2 () Int)
(declare-fun x3 () Int)
(assert (<= (+ (* 0 x1) (* 9 x2) (* 9 x3) ) 41))
(assert (<= (+ (* 9 x1) (* 6 x2) (* (- 8) x3) ) (- 56)))
(assert (<= (+ (* 1 x1) (* 7 x2) (* 2 x3) ) (- 45)))
(assert (<= (+ (* (- 9) x1) (* (- 1) x2) (* 2 x3) ) 72))
(assert (<= (+ (* (- 5) x1) (* (- 2) x2) (* (- 6) x3) ) 38))
(assert (<= (+ (* 10 x1) (* (- 2) x2) (* (- 1) x3) ) (- 48)))
(assert (<= (+ (* 1 x1) (* 0 x2) (* 0 x3) ) 89))
(assert (<= (+ (* (- 1) x1) (* 0 x2) (* 0 x3) ) 89))
(assert (<= (+ (* 0 x1) (* 1 x2) (* 0 x3) ) 89))
(assert (<= (+ (* 0 x1) (* (- 1) x2) (* 0 x3) ) 89))
(assert (<= (+ (* 0 x1) (* 0 x2) (* 1 x3) ) 89))
(assert (<= (+ (* 0 x1) (* 0 x2) (* (- 1) x3) ) 89))
