mixintcount/benchmarks/random_v2l/3_3_89.in
12 5
#	x1	x2	x3;		0 = Real; 1 = Integer
	1	1	1
1	0	9	9	41
1	9	6	-8	-56
1	1	7	2	-45
1	-9	-1	2	72
1	-5	-2	-6	38
1	10	-2	-1	-48
1	1	0	0	89
1	-1	0	0	89
1	0	1	0	89
1	0	-1	0	89
1	0	0	1	89
1	0	0	-1	89
